25 50
1 2 1
1 6 4
2 3 5
2 7 4
3 4 2
3 8 5
4 5 3
4 9 3
5 10 5
6 7 5
6 11 2
7 8 4
7 12 5
8 9 2
8 13 2
9 10 4
9 14 3
10 15 1
11 12 5
11 16 1
12 13 1
12 17 2
13 14 1
13 18 4
14 15 4
14 19 2
15 20 5
16 17 1
16 21 5
17 18 4
17 22 5
18 19 1
18 23 5
19 20 3
19 24 1
20 25 2
21 22 3
22 23 4
23 24 2
24 25 3
1 21 5
2 22 4
3 23 5
4 24 1
5 25 4
1 5 5
6 10 2
11 15 2
16 20 5
21 25 5
